c nIsolatedPIs 224
c maxPI 32
p cnf 101 208
c gate 33 12 28 0
12 -33 0
28 -33 0
-12 -28 33 0
c gate 34 -12 -28 0
-12 -34 0
-28 -34 0
12 28 34 0
c gate 35 11 -34 0
11 -35 0
-34 -35 0
-11 34 35 0
c gate 36 27 35 0
27 -36 0
35 -36 0
-27 -35 36 0
c gate 37 -33 -36 0
-33 -37 0
-36 -37 0
33 36 37 0
c gate 38 9 25 0
9 -38 0
25 -38 0
-9 -25 38 0
c gate 39 10 26 0
10 -39 0
26 -39 0
-10 -26 39 0
c gate 40 -38 -39 0
-38 -40 0
-39 -40 0
38 39 40 0
c gate 41 16 32 0
16 -41 0
32 -41 0
-16 -32 41 0
c gate 42 15 31 0
15 -42 0
31 -42 0
-15 -31 42 0
c gate 43 -41 -42 0
-41 -43 0
-42 -43 0
41 42 43 0
c gate 44 40 43 0
40 -44 0
43 -44 0
-40 -43 44 0
c gate 45 -15 -31 0
-15 -45 0
-31 -45 0
15 31 45 0
c gate 46 -14 -30 0
-14 -46 0
-30 -46 0
14 30 46 0
c gate 47 -45 -46 0
-45 -47 0
-46 -47 0
45 46 47 0
c gate 48 14 30 0
14 -48 0
30 -48 0
-14 -30 48 0
c gate 49 13 29 0
13 -49 0
29 -49 0
-13 -29 49 0
c gate 50 -48 -49 0
-48 -50 0
-49 -50 0
48 49 50 0
c gate 51 47 50 0
47 -51 0
50 -51 0
-47 -50 51 0
c gate 52 44 51 0
44 -52 0
51 -52 0
-44 -51 52 0
c gate 53 27 -34 0
27 -53 0
-34 -53 0
-27 34 53 0
c gate 54 -35 -53 0
-35 -54 0
-53 -54 0
35 53 54 0
c gate 55 -13 -29 0
-13 -55 0
-29 -55 0
13 29 55 0
c gate 56 -10 -26 0
-10 -56 0
-26 -56 0
10 26 56 0
c gate 57 -55 -56 0
-55 -57 0
-56 -57 0
55 56 57 0
c gate 58 -16 -32 0
-16 -58 0
-32 -58 0
16 32 58 0
c gate 59 -9 -25 0
-9 -59 0
-25 -59 0
9 25 59 0
c gate 60 -58 -59 0
-58 -60 0
-59 -60 0
58 59 60 0
c gate 61 57 60 0
57 -61 0
60 -61 0
-57 -60 61 0
c gate 62 -54 61 0
-54 -62 0
61 -62 0
54 -61 62 0
c gate 63 52 62 0
52 -63 0
62 -63 0
-52 -62 63 0
c gate 64 37 63 0
37 -64 0
63 -64 0
-37 -63 64 0
c gate 65 4 20 0
4 -65 0
20 -65 0
-4 -20 65 0
c gate 66 -4 -20 0
-4 -66 0
-20 -66 0
4 20 66 0
c gate 67 3 19 0
3 -67 0
19 -67 0
-3 -19 67 0
c gate 68 -66 67 0
-66 -68 0
67 -68 0
66 -67 68 0
c gate 69 -65 -68 0
-65 -69 0
-68 -69 0
65 68 69 0
c gate 70 2 18 0
2 -70 0
18 -70 0
-2 -18 70 0
c gate 71 1 17 0
1 -71 0
17 -71 0
-1 -17 71 0
c gate 72 -70 -71 0
-70 -72 0
-71 -72 0
70 71 72 0
c gate 73 -2 -18 0
-2 -73 0
-18 -73 0
2 18 73 0
c gate 74 -3 -19 0
-3 -74 0
-19 -74 0
3 19 74 0
c gate 75 -66 -74 0
-66 -75 0
-74 -75 0
66 74 75 0
c gate 76 -73 75 0
-73 -76 0
75 -76 0
73 -75 76 0
c gate 77 69 76 0
69 -77 0
76 -77 0
-69 -76 77 0
c gate 78 -72 77 0
-72 -78 0
77 -78 0
72 -77 78 0
c gate 79 69 -78 0
69 -79 0
-78 -79 0
-69 78 79 0
c gate 80 8 24 0
8 -80 0
24 -80 0
-8 -24 80 0
c gate 81 7 23 0
7 -81 0
23 -81 0
-7 -23 81 0
c gate 82 -80 -81 0
-80 -82 0
-81 -82 0
80 81 82 0
c gate 83 -8 -24 0
-8 -83 0
-24 -83 0
8 24 83 0
c gate 84 -7 -23 0
-7 -84 0
-23 -84 0
7 23 84 0
c gate 85 -83 -84 0
-83 -85 0
-84 -85 0
83 84 85 0
c gate 86 82 85 0
82 -86 0
85 -86 0
-82 -85 86 0
c gate 87 5 21 0
5 -87 0
21 -87 0
-5 -21 87 0
c gate 88 6 22 0
6 -88 0
22 -88 0
-6 -22 88 0
c gate 89 -87 -88 0
-87 -89 0
-88 -89 0
87 88 89 0
c gate 90 -5 -21 0
-5 -90 0
-21 -90 0
5 21 90 0
c gate 91 -6 -22 0
-6 -91 0
-22 -91 0
6 22 91 0
c gate 92 -90 -91 0
-90 -92 0
-91 -92 0
90 91 92 0
c gate 93 89 92 0
89 -93 0
92 -93 0
-89 -92 93 0
c gate 94 86 93 0
86 -94 0
93 -94 0
-86 -93 94 0
c gate 95 -79 94 0
-79 -95 0
94 -95 0
79 -94 95 0
c gate 96 -82 -83 0
-82 -96 0
-83 -96 0
82 83 96 0
c gate 97 -89 -91 0
-89 -97 0
-91 -97 0
89 91 97 0
c gate 98 86 97 0
86 -98 0
97 -98 0
-86 -97 98 0
c gate 99 -96 -98 0
-96 -99 0
-98 -99 0
96 98 99 0
c gate 100 -95 99 0
-95 -100 0
99 -100 0
95 -99 100 0
c gate 101 64 -100 0
64 -101 0
-100 -101 0
-64 100 101 0
c PO
101 0
